NAME          nguyen5
*   Malek A., Yari A. Primal-dual solution for the linear programming problems using neural networks // Appl. Math. Comput. Elsevier, 2005. Vol. 167, № 1. P. 198-211.
*   https://doi.org/10.1016/J.AMC.2004.06.081
*
*   Maximum:  
*   Minimum: 
ROWS
 L  0
 L  1
 L  2
 L  3
 N  c
COLUMNS
    x0        0         14.            1         7.5
    x0        2         2.5            3         3.2
    x0        c         -32.
    x1        0         4.             1         15.
    x1        2         3.             3         1.6
    x1        c         -43.
    x2        0         1.             1         3.2
    x2        2         17.            3         2.5
    x2        c         -36.
    x3        0         3.             1         3.
    x3        2         2.             3         5.
    x3        c         -28.
    x4        0         2.             1         1.5
    x4        2         2.3            3         7.
    x4        c         -29.
RHS
    b         0         3.5            1         3.6
    b         2         2.4            3         2.8
ENDATA
 